42211.4
42211.4
41598.9
41282.8
41282.8
40336.4
40336.4
39868.1
39868.1
39851.1
39081
39081
39081
39081
38812.8
38812.8
38098.7
38098.7
38098.7
38098.7
38098.7
38098.7
37640.3
37640.3
37328.7
37328.7
37328.7
37237.3
37237.3
36867.3
36867.3
36867.3
36867.3
36867.3
36430.4
36326.4
36112.9
36077.6
36056
35645.6
35645.6
35645.6
35645.6
34481.2
34481.2
34481.2
34481.2
34481.2
34481.2
34481.2
34095.7
33920.6
33920.6
33920.6
33920.6
33920.6
33920.6
33779.4
33779.4
33779.4
33779.4
33779.4
33779.4
33779.4
33779.4
33711.7
33711.7
33711.7
33426.8
33426.8
33426.8
33426.8
33081.4
32857.1
32857.1
32857.1
32593.4
32593.4
32593.4
32593.4
32593.4
32593.4
32411.8
32073.2
32073.2
32073.2
31914.3
31520.4
31520.4
31520.4
31520.4
30978.6
30978.6
30978.6
30978.6
30978.6
30978.6
30978.6
30978.6
30978.6
